CMPL model generation - running

CMPL version: 1.11.0
Authors: Thomas Schleiff, Mike Steglich
Distributed under the GPLv3 

create model instance ...
write model instance ...
CMPL model generation - finished

Solver - running


Welcome to IBM(R) ILOG(R) CPLEX(R) Interactive Optimizer 12.7.1.0
  with Simplex, Mixed Integer & Barrier Optimizers
5725-A06 5725-A29 5724-Y48 5724-Y49 5724-Y54 5724-Y55 5655-Y21
Copyright IBM Corp. 1988, 2017.  All Rights Reserved.

Type 'help' for a list of available commands.
Type 'help' followed by a command name for more
information on commands.

CPLEX> Specified objective sense: MINIMIZE
Selected objective  name:  line[1]
Selected RHS        name:  RHS
Selected bound      name:  BOUND
Problem '/tmp/cmpl.T24183.mps' read.
Read time = 0.08 sec. (10.12 ticks)
CPLEX> CPXPARAM_Read_APIEncoding                        "UTF-8"
Tried aggregator 3 times.
MIP Presolve eliminated 23985 rows and 37546 columns.
MIP Presolve modified 425 coefficients.
Aggregator did 776 substitutions.
Reduced MIP has 3161 rows, 4133 columns, and 12227 nonzeros.
Reduced MIP has 3923 binaries, 0 generals, 0 SOSs, and 0 indicators.
Presolve time = 0.07 sec. (50.27 ticks)
Found incumbent of value 993.572650 after 0.12 sec. (78.71 ticks)
Probing fixed 11 vars, tightened 0 bounds.
Probing time = 0.01 sec. (5.36 ticks)
Tried aggregator 1 time.
MIP Presolve eliminated 0 rows and 11 columns.
MIP Presolve modified 56 coefficients.
Reduced MIP has 3161 rows, 4122 columns, and 12205 nonzeros.
Reduced MIP has 4122 binaries, 0 generals, 0 SOSs, and 0 indicators.
Presolve time = 0.01 sec. (10.27 ticks)
Probing time = 0.01 sec. (2.84 ticks)
Clique table members: 7531.
MIP emphasis: balance optimality and feasibility.
MIP search method: dynamic search.
Parallel mode: none, using 1 thread.
Root relaxation solution time = 0.01 sec. (6.37 ticks)

        Nodes                                         Cuts/
   Node  Left     Objective  IInf  Best Integer    Best Bound    ItCnt     Gap

*     0+    0                          993.5726      -20.1285           102.03%
      0     0      234.4711     9      993.5726      234.4711      200   76.40%
*     0+    0                          240.4946      234.4711             2.50%
*     0+    0                          234.6769      234.4711             0.09%
      0     0      234.6166     1      234.6769      Cuts: 16      209    0.03%
*     0+    0                          234.6394      234.6166             0.01%
      0     0        cutoff            234.6394      234.6166      209    0.01%
Elapsed time = 0.20 sec. (130.01 ticks, tree = 0.01 MB, solutions = 4)

GUB cover cuts applied:  1
Clique cuts applied:  1
Cover cuts applied:  9
Gomory fractional cuts applied:  5

Root node processing (before b&c):
  Real time             =    0.21 sec. (132.12 ticks)
Sequential b&c:
  Real time             =    0.00 sec. (0.00 ticks)
                          ------------
Total (root+branch&cut) =    0.21 sec. (132.12 ticks)

Solution pool: 4 solutions saved.

MIP - Integer optimal solution:  Objective =  2.3463940200e+02
Solution time =    0.21 sec.  Iterations = 209  Nodes = 0
Deterministic time = 132.24 ticks  (643.47 ticks/sec)

CPLEX> Incumbent solution written to file '/tmp/cmpl.T24183.gsol'.
CPLEX> 
CMPL: Time used for model generation: 1 seconds
CMPL: Time used for solving the model: 1 seconds


Solution written to ASCII file: results/output_generated_conf_0.5/2017-07-03-5/fair-nonlinear.sol

Solver - finished
